c --- [ banner ] -------------------------------------------------------------
c 
c CaDiCaL Radically Simplified CDCL SAT Solver
c Copyright (c) 2016-2021 A. Biere, M. Fleury, N. Froleyks
c 
c Version 1.5.2 a5f15211db36c3956764e18194dd5bd63bf3b5e6
c g++ (GCC) 9.3.0 -Wall -Wextra -O3 -DNDEBUG
c Fri Oct 21 01:27:37 EDT 2022 Linux gra-login3 3.10.0-1160.66.1.el7.x86_64 x86_64
c 
c --- [ limit ] --------------------------------------------------------------
c 
c setting conflict limit to 200000 conflicts (due to '200000')
c 
c --- [ parsing input ] ------------------------------------------------------
c 
c reading DIMACS file from '33.cubes3408.adj'
c opening file to read '33.cubes3408.adj'
c found 'p cnf 6160 1595474' header
c parsed 1595474 clauses in 19.29 seconds process time
c closing file '33.cubes3408.adj'
c after reading 1457566771 bytes 1390.0 MB
c 
c --- [ options ] ------------------------------------------------------------
c 
c all options are set to their default value
c 
c --- [ solving ] ------------------------------------------------------------
c 
c time measured in process time since initialization
c 
c  seconds    reductions  redundant   irredundant
c          MB     restarts       trail       variables
c            level   conflicts       glue         remaining
c 
c * 19.29 1389  0 0   0    0    0  0% 0 1595422 2334 38%
c { 20.36 1439  0 0   0    0    0  0% 0 1595422 2334 38%
c i 23.29 1491 342 0   2   61   55 25% 3 1595422 2301 37%
c i 24.73 1507 262 0   8   80   72 25% 6 1595422 2299 37%
c i 25.90 1522 206 0  14  107   95 26% 11 1595422 2298 37%
c i 26.47 1527 186 0  18  120  106 26% 12 1595422 2297 37%
c i 28.57 1535 143 0  24  169  150 25% 10 1595422 2296 37%
c i 28.82 1536 132 0  24  190  170 25% 10 1595422 2295 37%
c i 29.10 1536 122 0  24  218  191 25% 10 1595422 2294 37%
c i 30.99 1547 101 0  36  288  255 26% 11 1595422 2293 37%
c - 35.42 1541 102 1  40  302  268 26% 13 563637 2293 37%
c i 35.93 1495 102 1  44  317  281 26% 14 563637 2287 37%
c i 36.58 1496 99 1  51  348  308 26% 15 563637 2286 37%
c i 37.43 1498 96 1  58  372  330 26% 15 563637 2285 37%
c i 38.16 1499 95 1  65  405  362 26% 17 563637 2284 37%
c i 38.32 1499 94 1  66  407  363 26% 17 563637 2283 37%
c i 42.14 1502 84 1 119  642  572 27% 23 563637 2282 37%
c i 42.17 1502 84 1 119  643  572 27% 23 563637 2281 37%
c i 44.28 1503 84 1 145  746  651 27% 25 563637 2262 37%
c i 44.90 1504 83 1 155  788  685 27% 26 563637 2261 37%
c 
c  seconds    reductions  redundant   irredundant
c          MB     restarts       trail       variables
c            level   conflicts       glue         remaining
c 
c i 45.40 1504 79 1 158  846  733 27% 25 563637 2260 37%
c i 45.72 1504 74 1 158  952  812 28% 24 563637 2259 37%
c } 45.90 1504 72 1 158 1002  855 28% 24 563637 2259 37%
c [ 45.90 1504  0 1 158 1002  855  0% 0 563637 2259 37%
c O 45.92 1504  3 1 158 1003  856 16% 3 563637 2259 37%
c i 46.43 1504 22 1 158 1109  954 32% 13 563637 2258 37%
c i 46.67 1504 22 1 158 1262 1095 32% 15 563637 2257 37%
c - 47.92 1606 22 2 158 1353 1072 33% 16 443126 2257 37%
c i 48.32 1560 22 2 158 1501 1199 33% 16 443126 2256 37%
c i 49.06 1560 22 2 158 1869 1458 32% 17 443126 2255 37%
c i 49.17 1560 22 2 158 1938 1505 32% 18 443126 2254 37%
c - 50.98 1559 23 3 159 2836 1609 31% 19 443117 2254 37%
c ] 51.72 1559 23 3 159 3003 1717 51% 19 443117 2254 37%
c { 51.72 1559 72 3 159 3003 1717 76% 24 443117 2254 37%
c F 51.78 1559 72 3 159 3004 1718 76% 24 443117 2254 37%
c i 51.99 1559 72 3 159 3013 1726 75% 24 443117 2253 37%
c i 54.26 1559 58 3 184 3600 2164 64% 24 443117 2252 37%
c i 54.99 1559 59 3 192 3669 2221 63% 24 443117 2249 37%
c i 55.76 1559 60 3 204 3720 2262 63% 24 443117 2242 36%
c i 57.26 1559 58 3 230 3941 2431 61% 24 443117 2240 36%
c 
c  seconds    reductions  redundant   irredundant
c          MB     restarts       trail       variables
c            level   conflicts       glue         remaining
c 
c - 58.47 1554 46 4 230 4811 2134 57% 22 442937 2240 36%
c 2 59.70 1554 44 4 230 5000 3242 57% 21 442925 2234 36%
c p 69.84 1554 44 4 230 5000 5772 57% 21 442925 2184 35%
c d 70.62 1554 44 4 230 5000 5728 57% 21 442775 2182 35%
c # 72.28 1554 37 4 233 6008 6311 55% 19 442775 2182 35%
c } 76.84 1554 36 4 322 7007 7096 53% 20 442775 2182 35%
c [ 76.84 1554 23 4 322 7007 7096 51% 19 442775 2182 35%
c - 77.53 1363 23 5 323 7283 3001 51% 19 442775 2182 35%
c ] 78.75 1363 24 5 323 8844 3909 52% 20 442775 2182 35%
c 1 78.75 1363 24 5 323 8844 3909 52% 20 442775 2182 35%
c 
c --- [ writing output ] -----------------------------------------------------
c 
c writing simplified CNF to DIMACS file 'simp/33.cubes3408.adj.simp1'
c * 78.75 1363 24 5 323 8844 3909 52% 20 442775 2182 35%
c opening file to write 'simp/33.cubes3408.adj.simp1'
c writing 'p cnf 6160 442775' header
c closing file 'simp/33.cubes3408.adj.simp1'
c after writing 207991601 bytes 198.4 MB
c wrote 442775 clauses in 1.52 seconds process time
c 
c --- [ writing extension ] --------------------------------------------------
c 
c writing extension stack to 'simp/33.cubes3408.adj.ext1'
c opening file to write 'simp/33.cubes3408.adj.ext1'
c closing file 'simp/33.cubes3408.adj.ext1'
c after writing 12530 bytes 0.0 MB
c wrote 842 witnesses in 0.00 seconds process time
c 
c --- [ result ] -------------------------------------------------------------
c 
s SATISFIABLE
c 
c --- [ run-time profiling ] -------------------------------------------------
c 
c process time taken by individual solving procedures
c (percentage relative to process time for solving)
c 
c        47.75   80.31% search
c        38.95   65.50% unstable
c        19.29   32.45% parse
c        11.70   19.68% simplify
c        10.14   17.05% probe
c         7.74   13.02% stable
c         1.07    1.79% lucky
c         0.08    0.13% ternary
c   =================================
c        59.46   74.07% solve
c 
c last line shows process time for solving
c (percentage relative to total process time)
c 
c --- [ statistics ] ---------------------------------------------------------
c 
c chronological:              2164        24.47 %  of conflicts
c conflicts:                  8844       148.74    per second
c decisions:                 32736       550.56    per second
c fixed:                       826        13.41 %  of all variables
c learned:                    8635        97.64 %  per conflict
c learned_lits:            1399627       100.00 %  learned literals
c minimized:                     0         0.00 %  learned literals
c shrunken:                 854724        61.07 %  learned literals
c minishrunken:             113375         8.10 %  learned literals
c propagations:            1447785         0.02 M  per second
c reduced:                    2582        29.19 %  per conflict
c rephased:                      3      2948.00    interval
c restarts:                    323        27.38    interval
c stabilizing:                   2        43.40 %  of conflicts
c substituted:                   8         0.13 %  of all variables
c subsumed:                   2369         0.07 %  of all clauses
c ternary:                     996         0.55 %  of resolved
c weakened:                     16         2.00    average size
c 
c seconds are measured in process time for solving
c 
c --- [ resources ] ----------------------------------------------------------
c 
c total process time since initialization:        80.28    seconds
c total real time since initialization:           82.81    seconds
c maximum resident set size of process:         1756.78    MB
c 
c --- [ shutting down ] ------------------------------------------------------
c 
c exit 10
WARNING! DIMACS header mismatch: wrong number of variables.
============================[ Problem Statistics ]=============================
|                                                                             |
|  Number of variables:          6120                                         |
|  Number of clauses:          442775                                         |
|  Parse time:                   2.75 s                                       |
|  Simplification time:          0.06 s                                       |
|                                                                             |
============================[ Search Statistics ]====================================================
| Conflicts |          ORIGINAL         |          LEARNT          | Num Sols |      SUBGRAPHS      |
|           |    Vars  Clauses Literals |    Limit  Clauses Lit/Cl |          | Canonical Noncanon. |
=====================================================================================================
|       102 |    6028   442777 44996324 |     2000      102     87 |        0 |        19         2 |
|       257 |    6028   442782 44996497 |     2000      257     77 |        0 |        31         7 |
|       490 |    6028   442790 44996641 |     2000      490     84 |        0 |        49        15 |
|       835 |    6028   442798 44996752 |     2000      835     84 |        0 |        57        23 |
|      1964 |    6028   443421 45005899 |     2000     1964     60 |        0 |       305       646 |
|      3330 |    6028   444028 45015689 |     3600     2330     36 |        0 |       507      1253 |
|      4503 |    6028   444062 45016444 |     3600     3503     55 |        0 |       525      1287 |
|      7133 |    6028   444984 45030829 |     5004     4337     39 |        0 |       639      2209 |
|     10331 |    6028   445620 45042481 |     6307     5038     38 |        0 |       801      2845 |
|     15685 |    6028   447130 45068991 |     7556     7241     40 |        0 |      1382      4355 |
|     21902 |    6028   447581 45077274 |     9999     5301     24 |        0 |      1498      4806 |
|     30919 |    6028   447949 45085036 |    11207     9326     48 |        0 |      1629      5174 |
|     44860 |    6028   448916 45105060 |    13606    11466     51 |        0 |      1854      6141 |
|     65613 |    6028   450208 45126231 |    17209    10022     29 |        0 |      2141      7433 |
|     99484 |    6028   454887 45183836 |    20825    16309     29 |        0 |      2601     12112 |
|    147355 |    6028   458969 45248979 |    25622    18977     45 |        0 |      3969     16194 |
|    227496 |    6028   473426 45481595 |    31618    29114     55 |        0 |      8279     30651 |
|    327166 |    6028   474570 45503445 |    38815    24981     35 |        0 |      8678     31795 |
|    476383 |    6028   475998 45536308 |    47212    25795     24 |        0 |      8971     33223 |
|    701400 |    6028   479332 45607887 |    56814    45214     51 |        0 |      9903     36557 |
|   1044754 |    6028   490161 45786546 |    70011    43165     34 |        0 |     12354     47386 |
|   1546053 |    6028   492672 45834271 |    85618    42671     19 |        0 |     13281     49897 |
|   2300151 |    6028   498588 45947570 |   103619    91770     59 |        0 |     14825     55813 |
|   3424960 |    6019   473375 45546805 |   118172    57132     33 |        0 |     15796     58348 |
=====================================================================================================
Number of solutions   : 0
Canonical subgraphs   : 16115          (3 /sec)
          order  3    : 1              (142857 /sec)
          order  4    : 1              (500000 /sec)
          order  5    : 1              (200000 /sec)
          order  6    : 1              (55556 /sec)
          order  7    : 1              (8772 /sec)
          order  8    : 1              (1005 /sec)
          order  9    : 2              (150 /sec)
          order 10    : 7              (37 /sec)
          order 11    : 25             (9 /sec)
          order 12    : 121            (4 /sec)
          order 13    : 709            (4 /sec)
          order 14    : 5272           (4 /sec)
          order 15    : 2387           (3 /sec)
          order 16    : 7398           (2 /sec)
          order 17    : 155            (3 /sec)
          order 18    : 26             (3 /sec)
          order 19    : 6              (2 /sec)
          order 20    : 1              (2 /sec)
          order 21    : 0              (-nan /sec)
          order 22    : 0              (-nan /sec)
Noncanonical subgraphs: 59273          (70 /sec)
          order  3    : 0              (-nan /sec)
          order  4    : 0              (-nan /sec)
          order  5    : 0              (-nan /sec)
          order  6    : 0              (-nan /sec)
          order  7    : 0              (-nan /sec)
          order  8    : 0              (-nan /sec)
          order  9    : 0              (-nan /sec)
          order 10    : 0              (-nan /sec)
          order 11    : 0              (-nan /sec)
          order 12    : 0              (-nan /sec)
          order 13    : 1497           (5386 /sec)
          order 14    : 17410          (963 /sec)
          order 15    : 18962          (296 /sec)
          order 16    : 10745          (171 /sec)
          order 17    : 10653          (15 /sec)
          order 18    : 6              (31 /sec)
          order 19    : 0              (-nan /sec)
          order 20    : 0              (-nan /sec)
          order 21    : 0              (-nan /sec)
Canonicity checking   : 5491.27 s
Noncanonicity checking: 841.305 s
Total canonicity time : 6332.57 s
database reductions   : 109
restarts              : 6653
conflicts             : 3800471        (454 /sec)
decisions             : 4971594        (0.00 % random) (594 /sec)
propagations          : 403663724      (48269 /sec)
conflict literals     : 370741978      (55.24 % deleted)
actual reward         : 0.119849
Memory used           : 615.00 MB
CPU time              : 8362.83 s

UNSATISFIABLE
